/*********************************************
 * OPL 12.7.1.0 Data
 * Author: Alumno
 *********************************************/
/*PRODUCTOS:
1: Nescafe Dolca
2: Nescafe Clasico
3: Nescafe Gold Blend
... 
*/

PRODUCTOS = {1, 2, 3, 4, 5, 6, 7, 8, 9, 10, 11, 12, 13, 14, 15, 16, 17, 18, 19, 20, 21, 22, 23, 24, 25, 26, 27, 28, 29, 30, 31, 32, 33, 34, 35, 36, 37, 38, 39, 40, 41, 42, 43, 44, 45, 46, 47, 48, 49, 50};
DISPONIBILIDAD = [ 1, 0, 0, 1, 1, 0, 0, 0, 0, 0, 0, 0, 0, 0, 1, 0, 1, 0, 0, 1, 1, 1, 1, 0, 0, 1, 1, 0, 0, 1, 0, 0, 1, 1, 1, 1, 1, 1, 1, 0, 1, 1, 1, 0, 0, 0, 0, 1, 1, 0 ];
PRECIO_PROMO = [ 79, 216, 83, 72, 204, 210, 102, 140, 180, 164, 127, 180, 135, 196, 174, 87, 197, 191, 121, 101, 143, 106, 156, 169, 108, 88, 72, 183, 211, 125, 116, 148, 195, 77, 90, 128, 163, 113, 115, 130, 162, 186, 171, 156, 180, 140, 196, 185, 125, 215 ];
PRECIO_REGULAR = [ 88, 241, 93, 81, 227, 234, 114, 156, 201, 183, 142, 200, 151, 218, 194, 97, 219, 213, 135, 113, 159, 118, 174, 188, 120, 98, 80, 204, 235, 139, 129, 165, 217, 86, 100, 143, 182, 126, 128, 145, 181, 207, 191, 174, 201, 156, 218, 206, 139, 239 ];
PREFERENCIAS_PROMO = [ 60, 19, 56, 85, 7, 5, 20, 86, 8, 82, 49, 58, 39, 71, 66, 45, 28, 18, 2, 47, 21, 70, 9, 26, 31, 1, 4, 3, 48, 57, 17, 15, 46, 40, 16, 6, 12, 37, 62, 14, 34, 23, 22, 68, 76, 30, 11, 72, 64, 27 ];
PREFERENCIAS_REGULAR = [ 65, 33, 84, 95, 35, 98, 63, 97, 13, 90, 51, 59, 41, 89, 67, 96, 55, 25, 87, 81, 42, 79, 44, 43, 54, 75, 10, 80, 83, 94, 53, 99, 73, 100, 52, 74, 24, 78, 88, 92, 38, 29, 61, 93, 77, 32, 36, 91, 69, 50 ];
